experiments/car/detailed-output/repair-1.param
letting np_cars_plus be 14
letting np_classes be 113
letting np_options be 15
letting quantity_range_min be 43
letting quantity_range_delta be 109
letting maxcars_range_min be 5
letting maxcars_range_delta be 1
letting blksize_delta_range_min be 2
letting blksize_delta_range_delta be 4
letting usage_card_min be 941
letting usage_card_delta be 33
letting blksize_delta_range_max be 2
letting maxcars_range_max be 5
letting quantity_range_max be 43
letting usage_card_max be 941
