experiments/car/detailed-output/repair-1.param.solution
language ESSENCE' 1.0
$ Minion SolverNodes: 49482
$ Minion SolverTotalTime: 0.20874
$ Minion SolverTimeOut: 0
$ Savile Row TotalTime: 0.127
letting repaired_np_cars_plus be 14
letting repaired_np_classes be 113
letting repaired_np_options be 15
letting repaired_quantity_range_delta be 109
letting repaired_quantity_range_min be 1
letting repaired_usage_card_delta be 33
letting repaired_usage_card_min be 941
